(set-logic QF_S)
(declare-fun var_0xINPUT_122091 () String)
(assert (and (= (len var_0xINPUT_122091) 0) (= (len var_0xINPUT_122091) 0) (not (= var_0xINPUT_122091 "pVEECEXk2p"))))
(check-sat var_0xINPUT_122091)